32      4       
12      11      15      14      
0       0       0       0       0       3       2       3       4       
10      8       11      13      8       3       5       6       8       
5       9       11      15      14      2       5       6       
4       12      3       11      14      2       5       8       
8       12      11      10      12      1       7       
7       11      9       11      9       1       7       
4       1       11      2       2       2       9       10      
5       12      5       15      14      2       9       10      
4       12      5       1       5       3       11      13      14      
5       12      5       11      14      3       11      12      14      
4       2       5       9       9       2       15      16      
10      12      11      15      6       2       15      16      
6       3       11      12      12      2       15      16      
3       3       9       9       14      1       15      
7       9       6       15      14      2       17      20      
2       12      11      15      7       2       18      20      
7       12      7       7       5       1       18      
3       7       8       15      14      1       19      
5       9       5       15      7       2       21      22      
6       12      10      15      14      1       21      
3       3       3       7       14      2       23      24      
1       5       11      15      14      1       23      
1       9       11      13      14      2       26      28      
1       12      10      7       5       1       25      
7       12      9       7       7       2       27      28      
6       12      11      15      9       1       27      
2       9       8       15      14      2       29      30      
5       12      6       9       14      2       29      30      
2       12      9       13      14      1       31      
8       6       5       15      14      1       31      
2       8       11      6       2       1       32      
0       0       0       0       0       0       
